50
16678

291 202
964 518
257 248
450 96
713 95
706 336
525 121
781 559
755 433
950 996
216 284
760 360
960 477
568 43
386 63
638 850
743 133
19 98
543 307
283 480
970 380
739 318
817 868
512 920
587 681
16 163
100 22
373 459
354 144
732 923
420 813
561 616
688 344
141 840
913 572
297 8
635 423
909 535
705 53
587 429
214 89
328 140
219 694
996 807
372 856
119 511
241 104
30 10
962 373
164 333
